Minimize
  - 52 y_0 - 27 y_1 - 56 y_2 - 50 y_3 - 23 y_4 - 55 y_5 - 48 y_6 - 34 y_7
   - 21 y_8 - 49 y_9 - 46 y_10 - 24 y_11 - 6 y_12 - 35 y_13 - 34 y_14
   - 9 y_15 - 14 y_16 - 30 y_17 - 43 y_19 + 39 x_0_7 + 65 x_0_10
   + 77 x_0_16 + 71 x_1_2 + 11 x_1_4 + 76 x_1_5 + 22 x_1_13 + 29 x_1_14
   + 23 x_2_6 + 27 x_2_9 + 82 x_2_10 + 66 x_2_11 + 87 x_2_16 + 79 x_3_5
   + 57 x_3_7 + 30 x_3_13 + 73 x_3_16 + 64 x_3_17 + 87 x_4_5 + 41 x_4_7
   + 26 x_4_14 + 36 x_4_15 + 21 x_4_16 + 41 x_4_17 + 40 x_4_19 + 42 x_5_9
   + 93 x_5_15 + 87 x_5_16 + 50 x_5_17 + 111 x_5_18 + 70 x_6_8 + 84 x_6_12
   + 67 x_6_19 + 39 x_7_8 + 21 x_7_11 + 48 x_7_19 + 60 x_8_9 + 31 x_8_11
   + 32 x_8_15 + 43 x_8_19 + 49 x_9_13 + 64 x_9_14 + 82 x_9_15 + 74 x_10_11
   + 84 x_10_15 + 52 x_11_13 + 25 x_11_16 + 47 x_11_18 + 66 x_12_14
   + 7 x_12_15 + 15 x_15_16 + 43 x_15_17 + 18 x_15_18 + 37 x_16_17
   + 61 x_17_18 + 104 x_18_0 + 86 x_18_19 + 656 Constant
Subject To
 c_0: y_7 = 1
 c_1_0: y_0 >= 1
 c_1_1: y_1 >= 1
 c_1_2: y_2 >= 1
 c_1_3: y_3 >= 1
 c_1_4: y_4 + y_8 >= 1
 c_1_5: y_5 >= 1
 c_1_6: y_6 >= 1
 c_1_7: y_7 >= 1
 c_1_8: y_4 + y_8 >= 1
 c_1_9: y_9 >= 1
 c_1_10: y_10 >= 1
 c_1_11: y_11 >= 1
 c_1_12: y_12 + y_15 >= 1
 c_1_13: y_13 >= 1
 c_1_14: y_14 >= 1
 c_1_15: y_12 + y_15 >= 1
 c_1_16: y_16 >= 1
 c_1_17: y_17 >= 1
 c_1_18: y_18 >= 1
 c_1_19: y_19 >= 1
 c_2_0: - 2 y_0 + x_0_7 + x_0_10 + x_0_16 + x_18_0 = 0
 c_2_1: - 2 y_1 + x_1_2 + x_1_4 + x_1_5 + x_1_13 + x_1_14 = 0
 c_2_2: - 2 y_2 + x_1_2 + x_2_6 + x_2_9 + x_2_10 + x_2_11 + x_2_16 = 0
 c_2_3: - 2 y_3 + x_3_5 + x_3_7 + x_3_13 + x_3_16 + x_3_17 = 0
 c_2_4: - 2 y_4 + x_1_4 + x_4_5 + x_4_7 + x_4_14 + x_4_15 + x_4_16 + x_4_17
   + x_4_19 = 0
 c_2_5: - 2 y_5 + x_1_5 + x_3_5 + x_4_5 + x_5_9 + x_5_15 + x_5_16 + x_5_17
   + x_5_18 = 0
 c_2_6: - 2 y_6 + x_2_6 + x_6_8 + x_6_12 + x_6_19 = 0
 c_2_7: - 2 y_7 + x_0_7 + x_3_7 + x_4_7 + x_7_8 + x_7_11 + x_7_19 = 0
 c_2_8: - 2 y_8 + x_6_8 + x_7_8 + x_8_9 + x_8_11 + x_8_15 + x_8_19 = 0
 c_2_9: - 2 y_9 + x_2_9 + x_5_9 + x_8_9 + x_9_13 + x_9_14 + x_9_15 = 0
 c_2_10: - 2 y_10 + x_0_10 + x_2_10 + x_10_11 + x_10_15 = 0
 c_2_11: - 2 y_11 + x_2_11 + x_7_11 + x_8_11 + x_10_11 + x_11_13 + x_11_16
   + x_11_18 = 0
 c_2_12: - 2 y_12 + x_6_12 + x_12_14 + x_12_15 = 0
 c_2_13: - 2 y_13 + x_1_13 + x_3_13 + x_9_13 + x_11_13 = 0
 c_2_14: - 2 y_14 + x_1_14 + x_4_14 + x_9_14 + x_12_14 = 0
 c_2_15: - 2 y_15 + x_4_15 + x_5_15 + x_8_15 + x_9_15 + x_10_15 + x_12_15
   + x_15_16 + x_15_17 + x_15_18 = 0
 c_2_16: - 2 y_16 + x_0_16 + x_2_16 + x_3_16 + x_4_16 + x_5_16 + x_11_16
   + x_15_16 + x_16_17 = 0
 c_2_17: - 2 y_17 + x_3_17 + x_4_17 + x_5_17 + x_15_17 + x_16_17 + x_17_18
   = 0
 c_2_18: - 2 y_18 + x_5_18 + x_11_18 + x_15_18 + x_17_18 + x_18_0 + x_18_19
   = 0
 c_2_19: - 2 y_19 + x_4_19 + x_6_19 + x_7_19 + x_8_19 + x_18_19 = 0
Bounds
 Constant = 1
Binaries
 y_0 y_1 y_2 y_3 y_4 y_5 y_6 y_7 y_8 y_9 y_10 y_11 y_12 y_13 y_14 y_15 y_16
 y_17 y_18 y_19 x_0_7 x_0_10 x_0_16 x_1_2 x_1_4 x_1_5 x_1_13 x_1_14 x_2_6
 x_2_9 x_2_10 x_2_11 x_2_16 x_3_5 x_3_7 x_3_13 x_3_16 x_3_17 x_4_5 x_4_7
 x_4_14 x_4_15 x_4_16 x_4_17 x_4_19 x_5_9 x_5_15 x_5_16 x_5_17 x_5_18 x_6_8
 x_6_12 x_6_19 x_7_8 x_7_11 x_7_19 x_8_9 x_8_11 x_8_15 x_8_19 x_9_13 x_9_14
 x_9_15 x_10_11 x_10_15 x_11_13 x_11_16 x_11_18 x_12_14 x_12_15 x_15_16
 x_15_17 x_15_18 x_16_17 x_17_18 x_18_0 x_18_19
End
